(set-info :source |printed by MathSAT|)
(declare-fun |!{a1.1}| () (Array Int Int))
(declare-fun |!{a1.1}.next| () (Array Int Int))
(declare-fun |!{a2.2}| () (Array Int Int))
(declare-fun |!{a2.2}.next| () (Array Int Int))
(declare-fun |!{a3.3}| () (Array Int Int))
(declare-fun |!{a3.3}.next| () (Array Int Int))
(declare-fun |!{a4.4}| () (Array Int Int))
(declare-fun |!{a4.4}.next| () (Array Int Int))
(declare-fun |!{a5.5}| () (Array Int Int))
(declare-fun |!{a5.5}.next| () (Array Int Int))
(declare-fun |!{a6.6}| () (Array Int Int))
(declare-fun |!{a6.6}.next| () (Array Int Int))
(declare-fun |!{N}| () Int)
(declare-fun |!{N}.next| () Int)
(declare-fun |!{i}| () Int)
(declare-fun |!{i}.next| () Int)
(declare-fun |!{x}| () Int)
(declare-fun |!{x}.next| () Int)
(declare-fun |!pc[0]| () Bool)
(declare-fun |!pc[0].next| () Bool)
(declare-fun |!pc[1]| () Bool)
(declare-fun |!pc[1].next| () Bool)
(declare-fun |!pc[2]| () Bool)
(declare-fun |!pc[2].next| () Bool)
(declare-fun |!pc[3]| () Bool)
(declare-fun |!pc[3].next| () Bool)
(declare-fun |%{x}#1| () Int)
(declare-fun |%{a1.1}#1| () (Array Int Int))
(declare-fun |%{a2.2}#1| () (Array Int Int))
(declare-fun |%{a3.3}#1| () (Array Int Int))
(declare-fun |%{a4.4}#1| () (Array Int Int))
(declare-fun |%{a5.5}#1| () (Array Int Int))
(declare-fun |%{a6.6}#1| () (Array Int Int))
(declare-fun nd<0> () Int)
(declare-fun nd_char<0> () Int)
(declare-fun proph0 () Int)
(declare-fun proph0.next () Int)
(define-fun .def_10 () Bool (! |!pc[3]| :next |!pc[3].next|))
(define-fun .def_12 () Bool (! |!pc[2]| :next |!pc[2].next|))
(define-fun .def_14 () Bool (! |!pc[1]| :next |!pc[1].next|))
(define-fun .def_16 () Bool (! |!pc[0]| :next |!pc[0].next|))
(define-fun .def_35 () (Array Int Int) (! |!{a2.2}| :next |!{a2.2}.next|))
(define-fun .def_38 () (Array Int Int) (! |!{a1.1}| :next |!{a1.1}.next|))
(define-fun .def_42 () (Array Int Int) (! |!{a3.3}| :next |!{a3.3}.next|))
(define-fun .def_46 () (Array Int Int) (! |!{a4.4}| :next |!{a4.4}.next|))
(define-fun .def_50 () (Array Int Int) (! |!{a5.5}| :next |!{a5.5}.next|))
(define-fun .def_54 () (Array Int Int) (! |!{a6.6}| :next |!{a6.6}.next|))
(define-fun .def_58 () Int (! |!{N}| :next |!{N}.next|))
(define-fun .def_66 () Int (! |!{x}| :next |!{x}.next|))
(define-fun .def_70 () Int (! |!{i}| :next |!{i}.next|))
(define-fun .def_155475 () Int (! proph0 :next |proph0.next|))
(define-fun .def_17 () Bool (not .def_16))
(define-fun .def_15 () Bool (not .def_14))
(define-fun .def_18 () Bool (and .def_15 .def_17))
(define-fun .def_13 () Bool (not .def_12))
(define-fun .def_19 () Bool (and .def_13 .def_18))
(define-fun .def_11 () Bool (not .def_10))
(define-fun .def_20 () Bool (! (and .def_11 .def_19) :init true))
(define-fun .def_155478 () Bool (= .def_155475 proph0.next))
(define-fun .def_259 () Bool (<= nd<0> 0))
(define-fun .def_260 () Bool (not .def_259))
(define-fun .def_250 () Bool (= |!{a1.1}.next| |%{a1.1}#1|))
(define-fun .def_248 () Bool (= |!{a2.2}.next| |%{a2.2}#1|))
(define-fun .def_251 () Bool (and .def_248 .def_250))
(define-fun .def_246 () Bool (= |!{a3.3}.next| |%{a3.3}#1|))
(define-fun .def_252 () Bool (and .def_246 .def_251))
(define-fun .def_244 () Bool (= |!{a4.4}.next| |%{a4.4}#1|))
(define-fun .def_253 () Bool (and .def_244 .def_252))
(define-fun .def_242 () Bool (= |!{a5.5}.next| |%{a5.5}#1|))
(define-fun .def_254 () Bool (and .def_242 .def_253))
(define-fun .def_240 () Bool (= |!{a6.6}.next| |%{a6.6}#1|))
(define-fun .def_255 () Bool (and .def_240 .def_254))
(define-fun .def_238 () Bool (= |!{N}.next| nd<0>))
(define-fun .def_256 () Bool (and .def_238 .def_255))
(define-fun .def_64 () Bool (= |!{i}.next| 0))
(define-fun .def_257 () Bool (and .def_64 .def_256))
(define-fun .def_236 () Bool (= |!{x}.next| |%{x}#1|))
(define-fun .def_258 () Bool (and .def_236 .def_257))
(define-fun .def_261 () Bool (and .def_258 .def_260))
(define-fun .def_27 () Bool (not |!pc[1].next|))
(define-fun .def_75 () Bool (and |!pc[0].next| .def_27))
(define-fun .def_30 () Bool (not |!pc[2].next|))
(define-fun .def_76 () Bool (and .def_30 .def_75))
(define-fun .def_74 () Bool (not |!pc[3].next|))
(define-fun .def_77 () Bool (and .def_74 .def_76))
(define-fun .def_234 () Bool (and .def_20 .def_77))
(define-fun .def_262 () Bool (and .def_234 .def_261))
(define-fun .def_211 () Int (select .def_38 .def_66))
(define-fun .def_210 () Int (select .def_54 .def_66))
(define-fun .def_212 () Bool (= .def_210 .def_211))
(define-fun .def_220 () Bool (not .def_212))
(define-fun .def_40 () Bool (= .def_38 |!{a1.1}.next|))
(define-fun .def_221 () Bool (and .def_40 .def_220))
(define-fun .def_37 () Bool (= .def_35 |!{a2.2}.next|))
(define-fun .def_222 () Bool (and .def_37 .def_221))
(define-fun .def_44 () Bool (= .def_42 |!{a3.3}.next|))
(define-fun .def_223 () Bool (and .def_44 .def_222))
(define-fun .def_48 () Bool (= .def_46 |!{a4.4}.next|))
(define-fun .def_224 () Bool (and .def_48 .def_223))
(define-fun .def_52 () Bool (= .def_50 |!{a5.5}.next|))
(define-fun .def_225 () Bool (and .def_52 .def_224))
(define-fun .def_56 () Bool (= .def_54 |!{a6.6}.next|))
(define-fun .def_226 () Bool (and .def_56 .def_225))
(define-fun .def_60 () Bool (= .def_58 |!{N}.next|))
(define-fun .def_227 () Bool (and .def_60 .def_226))
(define-fun .def_169 () Bool (= |!{i}.next| .def_70))
(define-fun .def_228 () Bool (and .def_169 .def_227))
(define-fun .def_68 () Bool (= .def_66 |!{x}.next|))
(define-fun .def_229 () Bool (and .def_68 .def_228))
(define-fun .def_198 () Bool (<= .def_58 .def_66))
(define-fun .def_214 () Bool (not .def_198))
(define-fun .def_230 () Bool (and .def_214 .def_229))
(define-fun .def_104 () Bool (and |!pc[0].next| |!pc[1].next|))
(define-fun .def_217 () Bool (and .def_30 .def_104))
(define-fun .def_218 () Bool (and .def_74 .def_217))
(define-fun .def_144 () Bool (and .def_14 .def_17))
(define-fun .def_195 () Bool (and .def_13 .def_144))
(define-fun .def_196 () Bool (and .def_11 .def_195))
(define-fun .def_219 () Bool (and .def_196 .def_218))
(define-fun .def_231 () Bool (and .def_219 .def_230))
(define-fun .def_188 () Int (* (- 1) |!{x}.next|))
(define-fun .def_189 () Int (+ .def_66 .def_188))
(define-fun .def_190 () Bool (= .def_189 (- 1)))
(define-fun .def_41 () Bool (and .def_37 .def_40))
(define-fun .def_45 () Bool (and .def_41 .def_44))
(define-fun .def_49 () Bool (and .def_45 .def_48))
(define-fun .def_53 () Bool (and .def_49 .def_52))
(define-fun .def_57 () Bool (and .def_53 .def_56))
(define-fun .def_61 () Bool (and .def_57 .def_60))
(define-fun .def_170 () Bool (and .def_61 .def_169))
(define-fun .def_191 () Bool (and .def_170 .def_190))
(define-fun .def_213 () Bool (and .def_191 .def_212))
(define-fun .def_215 () Bool (and .def_213 .def_214))
(define-fun .def_25 () Bool (not |!pc[0].next|))
(define-fun .def_126 () Bool (and .def_25 |!pc[1].next|))
(define-fun .def_165 () Bool (and .def_30 .def_126))
(define-fun .def_166 () Bool (and .def_74 .def_165))
(define-fun .def_209 () Bool (and .def_166 .def_196))
(define-fun .def_216 () Bool (and .def_209 .def_215))
(define-fun .def_232 () Bool (or .def_216 .def_231))
(define-fun .def_199 () Bool (and .def_40 .def_198))
(define-fun .def_200 () Bool (and .def_37 .def_199))
(define-fun .def_201 () Bool (and .def_44 .def_200))
(define-fun .def_202 () Bool (and .def_48 .def_201))
(define-fun .def_203 () Bool (and .def_52 .def_202))
(define-fun .def_204 () Bool (and .def_56 .def_203))
(define-fun .def_205 () Bool (and .def_60 .def_204))
(define-fun .def_206 () Bool (and .def_169 .def_205))
(define-fun .def_207 () Bool (and .def_68 .def_206))
(define-fun .def_28 () Bool (and .def_25 .def_27))
(define-fun .def_193 () Bool (and .def_28 |!pc[2].next|))
(define-fun .def_194 () Bool (and .def_74 .def_193))
(define-fun .def_197 () Bool (and .def_194 .def_196))
(define-fun .def_208 () Bool (and .def_197 .def_207))
(define-fun .def_233 () Bool (or .def_208 .def_232))
(define-fun .def_263 () Bool (or .def_233 .def_262))
(define-fun .def_123 () Bool (and .def_14 .def_16))
(define-fun .def_185 () Bool (and .def_13 .def_123))
(define-fun .def_186 () Bool (and .def_11 .def_185))
(define-fun .def_187 () Bool (and .def_166 .def_186))
(define-fun .def_192 () Bool (and .def_187 .def_191))
(define-fun .def_264 () Bool (or .def_192 .def_263))
(define-fun .def_175 () Int (select .def_50 .def_70))
(define-fun .def_176 () (Array Int Int) (store .def_54 .def_70 .def_175))
(define-fun .def_177 () Bool (= |!{a6.6}.next| .def_176))
(define-fun .def_178 () Bool (and .def_53 .def_177))
(define-fun .def_179 () Bool (and .def_60 .def_178))
(define-fun .def_94 () Int (* (- 1) .def_70))
(define-fun .def_95 () Int (+ |!{i}.next| .def_94))
(define-fun .def_96 () Bool (= .def_95 1))
(define-fun .def_180 () Bool (and .def_96 .def_179))
(define-fun .def_181 () Bool (and .def_68 .def_180))
(define-fun .def_71 () Bool (<= .def_58 .def_70))
(define-fun .def_99 () Bool (not .def_71))
(define-fun .def_182 () Bool (and .def_99 .def_181))
(define-fun .def_21 () Bool (and .def_15 .def_16))
(define-fun .def_163 () Bool (and .def_12 .def_21))
(define-fun .def_164 () Bool (and .def_11 .def_163))
(define-fun .def_147 () Bool (and |!pc[2].next| .def_75))
(define-fun .def_148 () Bool (and .def_74 .def_147))
(define-fun .def_174 () Bool (and .def_148 .def_164))
(define-fun .def_183 () Bool (and .def_174 .def_182))
(define-fun .def_168 () Bool (= |!{x}.next| 0))
(define-fun .def_171 () Bool (and .def_168 .def_170))
(define-fun .def_172 () Bool (and .def_71 .def_171))
(define-fun .def_167 () Bool (and .def_164 .def_166))
(define-fun .def_173 () Bool (and .def_167 .def_172))
(define-fun .def_184 () Bool (or .def_173 .def_183))
(define-fun .def_265 () Bool (or .def_184 .def_264))
(define-fun .def_152 () Int (select .def_46 .def_70))
(define-fun .def_153 () (Array Int Int) (store .def_50 .def_70 .def_152))
(define-fun .def_154 () Bool (= |!{a5.5}.next| .def_153))
(define-fun .def_155 () Bool (and .def_49 .def_154))
(define-fun .def_156 () Bool (and .def_56 .def_155))
(define-fun .def_157 () Bool (and .def_60 .def_156))
(define-fun .def_158 () Bool (and .def_96 .def_157))
(define-fun .def_159 () Bool (and .def_68 .def_158))
(define-fun .def_160 () Bool (and .def_99 .def_159))
(define-fun .def_145 () Bool (and .def_12 .def_144))
(define-fun .def_146 () Bool (and .def_11 .def_145))
(define-fun .def_127 () Bool (and |!pc[2].next| .def_126))
(define-fun .def_128 () Bool (and .def_74 .def_127))
(define-fun .def_151 () Bool (and .def_128 .def_146))
(define-fun .def_161 () Bool (and .def_151 .def_160))
(define-fun .def_149 () Bool (and .def_146 .def_148))
(define-fun .def_65 () Bool (and .def_61 .def_64))
(define-fun .def_69 () Bool (and .def_65 .def_68))
(define-fun .def_72 () Bool (and .def_69 .def_71))
(define-fun .def_150 () Bool (and .def_72 .def_149))
(define-fun .def_162 () Bool (or .def_150 .def_161))
(define-fun .def_266 () Bool (or .def_162 .def_265))
(define-fun .def_132 () Int (select .def_42 .def_70))
(define-fun .def_133 () (Array Int Int) (store .def_46 .def_70 .def_132))
(define-fun .def_134 () Bool (= |!{a4.4}.next| .def_133))
(define-fun .def_135 () Bool (and .def_45 .def_134))
(define-fun .def_136 () Bool (and .def_52 .def_135))
(define-fun .def_137 () Bool (and .def_56 .def_136))
(define-fun .def_138 () Bool (and .def_60 .def_137))
(define-fun .def_139 () Bool (and .def_96 .def_138))
(define-fun .def_140 () Bool (and .def_68 .def_139))
(define-fun .def_141 () Bool (and .def_99 .def_140))
(define-fun .def_124 () Bool (and .def_12 .def_123))
(define-fun .def_125 () Bool (and .def_11 .def_124))
(define-fun .def_105 () Bool (and |!pc[2].next| .def_104))
(define-fun .def_106 () Bool (and .def_74 .def_105))
(define-fun .def_131 () Bool (and .def_106 .def_125))
(define-fun .def_142 () Bool (and .def_131 .def_141))
(define-fun .def_129 () Bool (and .def_125 .def_128))
(define-fun .def_130 () Bool (and .def_72 .def_129))
(define-fun .def_143 () Bool (or .def_130 .def_142))
(define-fun .def_267 () Bool (or .def_143 .def_266))
(define-fun .def_110 () Int (select .def_35 .def_70))
(define-fun .def_111 () (Array Int Int) (store .def_42 .def_70 .def_110))
(define-fun .def_112 () Bool (= |!{a3.3}.next| .def_111))
(define-fun .def_113 () Bool (and .def_41 .def_112))
(define-fun .def_114 () Bool (and .def_48 .def_113))
(define-fun .def_115 () Bool (and .def_52 .def_114))
(define-fun .def_116 () Bool (and .def_56 .def_115))
(define-fun .def_117 () Bool (and .def_60 .def_116))
(define-fun .def_118 () Bool (and .def_96 .def_117))
(define-fun .def_119 () Bool (and .def_68 .def_118))
(define-fun .def_120 () Bool (and .def_99 .def_119))
(define-fun .def_103 () Bool (and .def_10 .def_19))
(define-fun .def_31 () Bool (and .def_28 .def_30))
(define-fun .def_33 () Bool (and .def_31 |!pc[3].next|))
(define-fun .def_109 () Bool (and .def_33 .def_103))
(define-fun .def_121 () Bool (and .def_109 .def_120))
(define-fun .def_107 () Bool (and .def_103 .def_106))
(define-fun .def_108 () Bool (and .def_72 .def_107))
(define-fun .def_122 () Bool (or .def_108 .def_121))
(define-fun .def_268 () Bool (or .def_122 .def_267))
(define-fun .def_82 () (Array Int Int) (store .def_38 .def_70 nd_char<0>))
(define-fun .def_83 () Bool (= |!{a1.1}.next| .def_82))
(define-fun .def_80 () (Array Int Int) (store .def_35 .def_70 nd_char<0>))
(define-fun .def_81 () Bool (= |!{a2.2}.next| .def_80))
(define-fun .def_84 () Bool (and .def_81 .def_83))
(define-fun .def_85 () Bool (and .def_44 .def_84))
(define-fun .def_86 () Bool (and .def_48 .def_85))
(define-fun .def_87 () Bool (and .def_52 .def_86))
(define-fun .def_88 () Bool (and .def_56 .def_87))
(define-fun .def_89 () Bool (and .def_60 .def_88))
(define-fun .def_97 () Bool (and .def_89 .def_96))
(define-fun .def_98 () Bool (and .def_68 .def_97))
(define-fun .def_100 () Bool (and .def_98 .def_99))
(define-fun .def_22 () Bool (and .def_13 .def_21))
(define-fun .def_23 () Bool (and .def_11 .def_22))
(define-fun .def_78 () Bool (and .def_23 .def_77))
(define-fun .def_101 () Bool (and .def_78 .def_100))
(define-fun .def_34 () Bool (and .def_23 .def_33))
(define-fun .def_73 () Bool (and .def_34 .def_72))
(define-fun .def_102 () Bool (or .def_73 .def_101))
(define-fun .def_269 () Bool (or .def_102 .def_268))
(define-fun .def_155480 () Bool (! (and .def_269 .def_155478) :trans true))
(define-fun .def_155476 () Bool (= .def_66 .def_155475))
(define-fun .def_155481 () Bool (not .def_155476))
(define-fun .def_270 () Bool (not .def_186))
(define-fun .def_155482 () Bool (! (or .def_270 .def_155481) :invar-property 0))
(assert true)
